c Created with the Wolfram Language : www.wolfram.com
c 
p edge 90 393
e 1 8
e 3 8
e 2 10
e 3 10
e 7 10
e 5 11
e 7 11
e 3 12
e 6 12
e 1 13
e 8 13
e 14 17
e 15 18
e 4 19
e 6 20
e 1 21
e 4 21
e 9 21
e 20 21
e 2 22
e 5 22
e 14 23
e 5 24
e 1 25
e 7 25
e 8 25
e 15 25
e 17 25
e 1 26
e 18 26
e 16 27
e 26 27
e 2 28
e 20 28
e 21 28
e 5 29
e 9 29
e 14 30
e 20 30
e 3 31
e 7 31
e 9 31
e 10 31
e 25 31
e 27 31
e 29 31
e 30 31
e 11 32
e 26 32
e 9 33
e 15 33
e 18 33
e 1 34
e 7 34
e 20 34
e 32 34
e 15 35
e 33 35
e 6 36
e 33 36
e 19 37
e 25 37
e 26 37
e 27 37
e 15 38
e 18 38
e 32 38
e 37 38
e 4 39
e 7 39
e 9 40
e 14 40
e 20 40
e 25 40
e 28 40
e 35 40
e 36 40
e 37 40
e 6 41
e 13 41
e 23 41
e 36 41
e 27 42
e 11 43
e 41 43
e 1 44
e 9 44
e 13 44
e 31 45
e 34 45
e 35 45
e 36 45
e 40 45
e 1 46
e 29 46
e 30 46
e 32 46
e 35 46
e 6 47
e 30 47
e 34 47
e 35 47
e 38 47
e 9 48
e 30 48
e 38 48
e 47 48
e 6 49
e 17 49
e 23 49
e 29 49
e 37 49
e 40 49
e 41 49
e 44 49
e 1 50
e 25 50
e 26 50
e 40 50
e 42 50
e 3 51
e 9 51
e 10 51
e 20 51
e 37 51
e 47 51
e 48 51
e 19 52
e 22 52
e 23 52
e 12 53
e 32 53
e 36 53
e 49 53
e 2 54
e 4 54
e 10 54
e 42 54
e 2 55
e 21 55
e 27 55
e 33 55
e 46 55
e 48 55
e 11 56
e 16 56
e 18 56
e 19 56
e 26 56
e 28 56
e 44 56
e 46 56
e 50 56
e 51 56
e 1 57
e 13 57
e 31 57
e 34 57
e 4 58
e 12 58
e 29 58
e 43 58
e 45 58
e 55 58
e 56 58
e 19 59
e 20 59
e 30 59
e 35 59
e 40 59
e 44 59
e 45 59
e 1 60
e 9 60
e 17 60
e 25 60
e 28 60
e 44 60
e 57 60
e 59 60
e 5 61
e 15 61
e 30 61
e 31 61
e 39 61
e 41 61
e 53 61
e 14 62
e 27 62
e 40 62
e 47 62
e 11 63
e 16 63
e 20 63
e 31 63
e 43 63
e 11 64
e 29 64
e 38 64
e 46 64
e 47 64
e 53 64
e 59 64
e 15 65
e 17 65
e 37 65
e 57 65
e 29 66
e 38 66
e 39 66
e 43 66
e 50 66
e 52 66
e 54 66
e 55 66
e 63 66
e 40 67
e 64 67
e 8 68
e 20 68
e 34 68
e 40 68
e 47 68
e 60 68
e 11 69
e 17 69
e 19 69
e 21 69
e 35 69
e 37 69
e 38 69
e 46 69
e 2 70
e 7 70
e 13 70
e 23 70
e 30 70
e 34 70
e 41 70
e 50 70
e 51 70
e 56 70
e 4 71
e 17 71
e 32 71
e 53 71
e 61 71
e 62 71
e 64 71
e 69 71
e 2 72
e 9 72
e 15 72
e 18 72
e 30 72
e 43 72
e 44 72
e 52 72
e 70 72
e 3 73
e 9 73
e 15 73
e 20 73
e 26 73
e 35 73
e 39 73
e 41 73
e 43 73
e 59 73
e 20 74
e 30 74
e 38 74
e 44 74
e 45 74
e 5 75
e 16 75
e 37 75
e 43 75
e 48 75
e 53 75
e 56 75
e 58 75
e 68 75
e 12 76
e 39 76
e 42 76
e 45 76
e 53 76
e 62 76
e 15 77
e 16 77
e 17 77
e 21 77
e 33 77
e 36 77
e 39 77
e 46 77
e 54 77
e 13 78
e 18 78
e 37 78
e 46 78
e 59 78
e 64 78
e 11 79
e 16 79
e 23 79
e 24 79
e 34 79
e 77 79
e 7 80
e 16 80
e 27 80
e 29 80
e 50 80
e 64 80
e 78 80
e 8 81
e 25 81
e 38 81
e 42 81
e 44 81
e 55 81
e 60 81
e 66 81
e 71 81
e 2 82
e 17 82
e 30 82
e 36 82
e 48 82
e 58 82
e 64 82
e 66 82
e 12 83
e 19 83
e 24 83
e 30 83
e 59 83
e 62 83
e 1 84
e 15 84
e 25 84
e 53 84
e 63 84
e 75 84
e 79 84
e 81 84
e 83 84
e 10 85
e 16 85
e 19 85
e 37 85
e 53 85
e 54 85
e 77 85
e 8 86
e 35 86
e 51 86
e 75 86
e 78 86
e 12 87
e 47 87
e 50 87
e 60 87
e 63 87
e 65 87
e 76 87
e 82 87
e 2 88
e 7 88
e 16 88
e 18 88
e 24 88
e 26 88
e 36 88
e 40 88
e 61 88
e 77 88
e 78 88
e 2 89
e 4 89
e 17 89
e 30 89
e 46 89
e 51 89
e 56 89
e 59 89
e 72 89
e 1 90
e 51 90
e 61 90
e 68 90
